param n := 120;
param c := 3000
param : V : p w :=
   0	  39	 458
   1	  76	 252
   2	  92	 290
   3	  74	 497
   4	  93	 250
   5	  76	 253
   6	  97	 446
   7	  21	 276
   8	  89	 278
   9	  30	 387
  10	  77	 274
  11	 100	 339
  12	  32	 462
  13	  99	 268
  14	  17	 270
  15	  59	 472
  16	  43	 258
  17	  76	 270
  18	  91	 377
  19	  81	 276
  20	  71	 347
  21	  49	 484
  22	  31	 253
  23	  83	 263
  24	  99	 490
  25	  38	 252
  26	  48	 258
  27	   4	 414
  28	  11	 250
  29	  62	 336
  30	  85	 493
  31	  82	 253
  32	  95	 254
  33	  14	 470
  34	  54	 257
  35	  79	 273
  36	  48	 403
  37	  23	 262
  38	  39	 335
  39	  86	 433
  40	  72	 273
  41	  84	 294
  42	   7	 375
  43	  62	 276
  44	  52	 349
  45	  96	 422
  46	  43	 276
  47	  33	 302
  48	  79	 446
  49	  11	 274
  50	  59	 280
  51	  45	 352
  52	  33	 318
  53	  84	 330
  54	  55	 402
  55	  14	 269
  56	  80	 329
  57	  89	 436
  58	  71	 254
  59	  64	 310
  60	  21	 357
  61	  75	 268
  62	  78	 375
  63	  53	 410
  64	  89	 262
  65	  70	 328
  66	  30	 352
  67	  83	 275
  68	  95	 373
  69	  45	 423
  70	  33	 262
  71	  79	 315
  72	   3	 426
  73	  65	 266
  74	   8	 308
  75	  15	 388
  76	  23	 251
  77	  14	 361
  78	   5	 386
  79	  63	 272
  80	   6	 342
  81	  36	 374
  82	  58	 254
  83	  18	 372
  84	   8	 408
  85	  46	 287
  86	   8	 305
  87	  55	 442
  88	  15	 252
  89	   6	 306
  90	  83	 364
  91	  87	 302
  92	  40	 334
  93	   6	 363
  94	  76	 265
  95	   8	 372
  96	  93	 396
  97	  12	 292
  98	  77	 312
  99	  12	 485
 100	  73	 255
 101	  64	 260
 102	  61	 436
 103	   4	 256
 104	  72	 308
 105	  33	 445
 106	  86	 270
 107	  24	 285
 108	  78	 419
 109	  48	 275
 110	  28	 306
 111	  20	 427
 112	  51	 250
 113	  81	 323
 114	  73	 490
 115	  70	 252
 116	  54	 258
 117	  83	 496
 118	  41	 250
 119	  88	 254
;

set E :=
   0	   1
   0	   2
   0	  10
   0	  12
   0	  14
   0	  16
   0	  18
   0	  19
   0	  20
   0	  24
   0	  25
   0	  28
   0	  36
   0	  37
   0	  39
   0	  40
   0	  42
   0	  43
   0	  45
   0	  46
   0	  49
   0	  50
   0	  53
   0	  55
   0	  62
   0	  65
   0	  66
   0	  67
   0	  70
   0	  72
   0	  74
   0	  75
   0	  80
   0	  81
   0	  82
   0	  84
   0	  86
   0	  89
   0	  91
   0	  93
   0	  97
   0	 101
   0	 110
   0	 111
   0	 114
   0	 118
   1	   6
   1	   7
   1	   8
   1	   9
   1	  12
   1	  13
   1	  16
   1	  17
   1	  18
   1	  19
   1	  21
   1	  22
   1	  25
   1	  26
   1	  28
   1	  29
   1	  33
   1	  35
   1	  37
   1	  41
   1	  46
   1	  50
   1	  51
   1	  52
   1	  54
   1	  56
   1	  58
   1	  66
   1	  70
   1	  71
   1	  76
   1	  78
   1	  81
   1	  82
   1	  83
   1	  88
   1	  91
   1	  92
   1	  95
   1	  97
   1	 100
   1	 102
   1	 104
   1	 109
   1	 111
   1	 113
   1	 114
   1	 117
   1	 119
   2	   6
   2	   8
   2	  11
   2	  18
   2	  24
   2	  27
   2	  28
   2	  32
   2	  33
   2	  35
   2	  36
   2	  37
   2	  38
   2	  39
   2	  41
   2	  42
   2	  44
   2	  45
   2	  47
   2	  53
   2	  54
   2	  55
   2	  61
   2	  62
   2	  64
   2	  67
   2	  68
   2	  69
   2	  70
   2	  74
   2	  76
   2	  77
   2	  79
   2	  84
   2	  89
   2	  90
   2	  97
   2	  98
   2	  99
   2	 105
   2	 111
   2	 116
   3	   5
   3	   7
   3	   8
   3	  11
   3	  12
   3	  13
   3	  14
   3	  19
   3	  20
   3	  22
   3	  28
   3	  31
   3	  35
   3	  40
   3	  41
   3	  43
   3	  44
   3	  46
   3	  47
   3	  48
   3	  50
   3	  51
   3	  55
   3	  56
   3	  58
   3	  59
   3	  60
   3	  65
   3	  67
   3	  69
   3	  70
   3	  73
   3	  75
   3	  79
   3	  84
   3	  86
   3	  89
   3	  92
   3	  95
   3	  97
   3	  98
   3	 100
   3	 102
   3	 104
   3	 106
   3	 107
   3	 110
   3	 111
   3	 115
   3	 119
   4	   6
   4	  15
   4	  18
   4	  19
   4	  20
   4	  21
   4	  23
   4	  29
   4	  32
   4	  36
   4	  39
   4	  40
   4	  41
   4	  42
   4	  49
   4	  52
   4	  55
   4	  58
   4	  60
   4	  61
   4	  62
   4	  68
   4	  70
   4	  72
   4	  79
   4	  80
   4	  82
   4	  83
   4	  84
   4	  90
   4	  91
   4	  96
   4	 100
   4	 106
   4	 108
   4	 113
   4	 116
   5	  11
   5	  13
   5	  15
   5	  16
   5	  19
   5	  20
   5	  21
   5	  22
   5	  23
   5	  24
   5	  27
   5	  28
   5	  30
   5	  33
   5	  42
   5	  43
   5	  46
   5	  47
   5	  49
   5	  50
   5	  52
   5	  54
   5	  55
   5	  64
   5	  65
   5	  68
   5	  69
   5	  72
   5	  74
   5	  76
   5	  77
   5	  78
   5	  84
   5	  88
   5	  90
   5	  91
   5	  94
   5	  99
   5	 102
   5	 104
   5	 106
   5	 110
   5	 111
   5	 112
   5	 113
   5	 115
   5	 116
   6	   7
   6	   8
   6	  10
   6	  12
   6	  14
   6	  15
   6	  16
   6	  19
   6	  21
   6	  25
   6	  27
   6	  31
   6	  34
   6	  41
   6	  46
   6	  53
   6	  58
   6	  65
   6	  66
   6	  68
   6	  70
   6	  73
   6	  77
   6	  80
   6	  83
   6	  85
   6	  87
   6	  88
   6	  94
   6	  99
   6	 103
   6	 107
   6	 109
   6	 110
   6	 111
   6	 114
   6	 116
   6	 118
   7	   8
   7	  15
   7	  18
   7	  22
   7	  23
   7	  28
   7	  29
   7	  31
   7	  35
   7	  45
   7	  47
   7	  50
   7	  51
   7	  53
   7	  56
   7	  60
   7	  61
   7	  62
   7	  63
   7	  65
   7	  66
   7	  70
   7	  73
   7	  74
   7	  75
   7	  77
   7	  81
   7	  83
   7	  86
   7	  87
   7	  90
   7	  91
   7	  96
   7	 100
   7	 103
   7	 104
   7	 109
   7	 115
   7	 117
   8	  10
   8	  19
   8	  21
   8	  22
   8	  25
   8	  26
   8	  28
   8	  35
   8	  36
   8	  38
   8	  39
   8	  42
   8	  45
   8	  49
   8	  55
   8	  57
   8	  60
   8	  63
   8	  64
   8	  65
   8	  67
   8	  69
   8	  71
   8	  80
   8	  82
   8	  83
   8	  84
   8	  86
   8	  87
   8	  88
   8	  89
   8	  90
   8	  91
   8	  92
   8	  93
   8	  94
   8	  97
   8	  98
   8	 100
   8	 103
   8	 106
   8	 108
   8	 109
   8	 112
   8	 117
   8	 118
   8	 119
   9	  10
   9	  11
   9	  12
   9	  13
   9	  14
   9	  15
   9	  20
   9	  21
   9	  22
   9	  24
   9	  25
   9	  28
   9	  31
   9	  37
   9	  38
   9	  40
   9	  41
   9	  42
   9	  43
   9	  44
   9	  46
   9	  47
   9	  48
   9	  50
   9	  52
   9	  53
   9	  57
   9	  59
   9	  60
   9	  62
   9	  64
   9	  66
   9	  67
   9	  70
   9	  72
   9	  73
   9	  74
   9	  76
   9	  79
   9	  80
   9	  86
   9	  88
   9	  92
   9	  96
   9	 101
   9	 103
   9	 106
   9	 108
   9	 110
   9	 111
   9	 113
   9	 116
   9	 118
   9	 119
  10	  13
  10	  14
  10	  16
  10	  17
  10	  18
  10	  21
  10	  22
  10	  23
  10	  26
  10	  27
  10	  29
  10	  31
  10	  33
  10	  35
  10	  36
  10	  38
  10	  40
  10	  43
  10	  48
  10	  50
  10	  51
  10	  52
  10	  53
  10	  60
  10	  65
  10	  67
  10	  68
  10	  70
  10	  71
  10	  74
  10	  75
  10	  76
  10	  77
  10	  78
  10	  80
  10	  81
  10	  85
  10	  87
  10	  89
  10	  92
  10	  94
  10	  99
  10	 100
  10	 103
  10	 104
  10	 106
  10	 108
  10	 112
  10	 113
  10	 114
  11	  15
  11	  16
  11	  17
  11	  19
  11	  27
  11	  28
  11	  31
  11	  33
  11	  36
  11	  37
  11	  39
  11	  45
  11	  47
  11	  49
  11	  52
  11	  56
  11	  68
  11	  71
  11	  77
  11	  79
  11	  82
  11	  83
  11	  84
  11	  85
  11	  91
  11	  92
  11	  93
  11	  98
  11	  99
  11	 101
  11	 103
  11	 104
  11	 105
  11	 107
  11	 110
  11	 115
  11	 116
  12	  14
  12	  15
  12	  18
  12	  19
  12	  20
  12	  21
  12	  24
  12	  26
  12	  29
  12	  32
  12	  35
  12	  37
  12	  40
  12	  41
  12	  42
  12	  43
  12	  45
  12	  47
  12	  55
  12	  56
  12	  60
  12	  65
  12	  67
  12	  70
  12	  72
  12	  73
  12	  74
  12	  83
  12	  84
  12	  92
  12	  93
  12	  95
  12	  99
  12	 100
  12	 103
  12	 107
  12	 109
  12	 111
  12	 114
  12	 118
  12	 119
  13	  14
  13	  18
  13	  19
  13	  20
  13	  22
  13	  23
  13	  25
  13	  26
  13	  27
  13	  33
  13	  34
  13	  36
  13	  37
  13	  38
  13	  39
  13	  41
  13	  42
  13	  47
  13	  48
  13	  49
  13	  54
  13	  56
  13	  57
  13	  63
  13	  64
  13	  65
  13	  67
  13	  68
  13	  74
  13	  75
  13	  76
  13	  80
  13	  81
  13	  83
  13	  88
  13	  90
  13	  95
  13	  99
  13	 101
  13	 103
  13	 106
  13	 110
  13	 111
  13	 114
  13	 115
  13	 116
  14	  16
  14	  18
  14	  20
  14	  23
  14	  27
  14	  29
  14	  31
  14	  34
  14	  40
  14	  42
  14	  47
  14	  48
  14	  49
  14	  50
  14	  51
  14	  53
  14	  56
  14	  58
  14	  62
  14	  64
  14	  66
  14	  67
  14	  71
  14	  74
  14	  76
  14	  77
  14	  78
  14	  86
  14	  87
  14	  88
  14	  95
  14	  98
  14	 103
  14	 105
  14	 106
  14	 109
  14	 113
  14	 114
  14	 117
  14	 118
  14	 119
  15	  18
  15	  21
  15	  27
  15	  28
  15	  31
  15	  39
  15	  41
  15	  42
  15	  44
  15	  45
  15	  48
  15	  50
  15	  53
  15	  68
  15	  69
  15	  72
  15	  73
  15	  78
  15	  84
  15	  85
  15	  87
  15	  88
  15	  90
  15	  93
  15	  94
  15	  95
  15	 101
  15	 102
  15	 104
  15	 107
  15	 109
  15	 117
  15	 119
  16	  19
  16	  22
  16	  23
  16	  24
  16	  27
  16	  31
  16	  36
  16	  37
  16	  42
  16	  45
  16	  46
  16	  53
  16	  55
  16	  60
  16	  61
  16	  63
  16	  68
  16	  70
  16	  71
  16	  72
  16	  78
  16	  82
  16	  83
  16	  85
  16	  87
  16	  89
  16	  91
  16	  95
  16	  96
  16	  97
  16	  98
  16	  99
  16	 100
  16	 102
  16	 104
  16	 109
  16	 110
  16	 112
  16	 113
  16	 117
  17	  20
  17	  21
  17	  25
  17	  30
  17	  36
  17	  40
  17	  41
  17	  42
  17	  49
  17	  50
  17	  53
  17	  54
  17	  56
  17	  58
  17	  62
  17	  69
  17	  70
  17	  72
  17	  73
  17	  76
  17	  81
  17	  87
  17	  88
  17	  91
  17	  93
  17	  94
  17	  97
  17	  98
  17	 100
  17	 103
  17	 106
  17	 110
  17	 111
  17	 113
  17	 116
  17	 119
  18	  19
  18	  22
  18	  26
  18	  31
  18	  32
  18	  36
  18	  37
  18	  47
  18	  49
  18	  55
  18	  64
  18	  65
  18	  67
  18	  68
  18	  71
  18	  72
  18	  74
  18	  75
  18	  76
  18	  77
  18	  82
  18	  83
  18	  85
  18	  86
  18	  89
  18	  90
  18	  92
  18	  94
  18	  96
  18	  98
  18	 100
  18	 104
  18	 106
  18	 107
  18	 108
  18	 110
  18	 115
  18	 118
  18	 119
  19	  20
  19	  21
  19	  23
  19	  25
  19	  33
  19	  35
  19	  36
  19	  38
  19	  40
  19	  42
  19	  43
  19	  46
  19	  48
  19	  51
  19	  53
  19	  54
  19	  55
  19	  57
  19	  59
  19	  60
  19	  61
  19	  64
  19	  69
  19	  71
  19	  72
  19	  74
  19	  75
  19	  79
  19	  80
  19	  84
  19	  88
  19	  98
  19	  99
  19	 102
  19	 103
  19	 105
  19	 109
  19	 110
  19	 111
  19	 113
  19	 115
  19	 118
  19	 119
  20	  24
  20	  26
  20	  27
  20	  28
  20	  29
  20	  31
  20	  32
  20	  35
  20	  37
  20	  40
  20	  41
  20	  43
  20	  50
  20	  53
  20	  56
  20	  58
  20	  59
  20	  61
  20	  66
  20	  69
  20	  72
  20	  73
  20	  75
  20	  76
  20	  77
  20	  79
  20	  82
  20	  83
  20	  93
  20	  95
  20	  97
  20	 100
  20	 104
  20	 108
  20	 110
  20	 113
  20	 117
  20	 119
  21	  22
  21	  24
  21	  25
  21	  26
  21	  28
  21	  30
  21	  31
  21	  32
  21	  33
  21	  34
  21	  37
  21	  42
  21	  44
  21	  49
  21	  51
  21	  53
  21	  57
  21	  58
  21	  63
  21	  64
  21	  65
  21	  66
  21	  73
  21	  74
  21	  76
  21	  80
  21	  81
  21	  82
  21	  83
  21	  86
  21	  87
  21	  92
  21	  93
  21	  96
  21	  97
  21	 103
  21	 104
  21	 106
  21	 109
  21	 112
  21	 113
  21	 116
  21	 117
  22	  23
  22	  27
  22	  28
  22	  30
  22	  32
  22	  33
  22	  35
  22	  37
  22	  40
  22	  43
  22	  45
  22	  52
  22	  55
  22	  58
  22	  59
  22	  61
  22	  64
  22	  66
  22	  69
  22	  72
  22	  73
  22	  77
  22	  80
  22	  82
  22	  89
  22	  91
  22	  92
  22	 101
  22	 105
  22	 106
  22	 110
  23	  24
  23	  25
  23	  26
  23	  27
  23	  29
  23	  30
  23	  31
  23	  32
  23	  33
  23	  36
  23	  38
  23	  42
  23	  43
  23	  44
  23	  45
  23	  47
  23	  49
  23	  50
  23	  52
  23	  54
  23	  60
  23	  61
  23	  63
  23	  66
  23	  72
  23	  75
  23	  76
  23	  77
  23	  82
  23	  83
  23	  85
  23	  86
  23	  87
  23	  88
  23	  90
  23	  98
  23	 100
  23	 101
  23	 106
  23	 107
  23	 111
  23	 115
  23	 116
  24	  25
  24	  26
  24	  30
  24	  31
  24	  33
  24	  37
  24	  38
  24	  39
  24	  46
  24	  47
  24	  56
  24	  58
  24	  59
  24	  60
  24	  61
  24	  63
  24	  64
  24	  65
  24	  66
  24	  67
  24	  70
  24	  72
  24	  74
  24	  75
  24	  76
  24	  77
  24	  78
  24	  86
  24	  88
  24	  89
  24	  90
  24	  94
  24	  97
  24	 104
  24	 108
  24	 112
  24	 116
  24	 118
  24	 119
  25	  27
  25	  32
  25	  36
  25	  37
  25	  38
  25	  39
  25	  40
  25	  43
  25	  44
  25	  47
  25	  48
  25	  49
  25	  55
  25	  57
  25	  60
  25	  64
  25	  65
  25	  66
  25	  67
  25	  69
  25	  72
  25	  74
  25	  76
  25	  79
  25	  85
  25	  88
  25	  89
  25	  91
  25	  92
  25	  94
  25	  96
  25	  97
  25	  99
  25	 100
  25	 101
  25	 102
  25	 103
  25	 107
  25	 111
  25	 112
  25	 113
  25	 118
  25	 119
  26	  29
  26	  34
  26	  35
  26	  38
  26	  40
  26	  46
  26	  53
  26	  57
  26	  58
  26	  60
  26	  61
  26	  62
  26	  65
  26	  68
  26	  69
  26	  70
  26	  71
  26	  74
  26	  75
  26	  76
  26	  78
  26	  83
  26	  86
  26	  87
  26	  90
  26	  91
  26	  93
  26	  94
  26	  97
  26	 101
  26	 105
  26	 107
  26	 108
  26	 109
  26	 111
  26	 113
  26	 116
  26	 118
  27	  29
  27	  30
  27	  31
  27	  32
  27	  35
  27	  37
  27	  38
  27	  39
  27	  41
  27	  44
  27	  45
  27	  46
  27	  47
  27	  50
  27	  51
  27	  52
  27	  54
  27	  57
  27	  59
  27	  62
  27	  63
  27	  65
  27	  67
  27	  68
  27	  69
  27	  71
  27	  72
  27	  73
  27	  79
  27	  81
  27	  84
  27	  87
  27	  89
  27	  98
  27	  99
  27	 100
  27	 101
  27	 102
  27	 103
  27	 104
  27	 106
  27	 110
  27	 112
  27	 115
  27	 116
  27	 118
  28	  31
  28	  32
  28	  41
  28	  47
  28	  49
  28	  58
  28	  61
  28	  63
  28	  64
  28	  65
  28	  66
  28	  69
  28	  70
  28	  72
  28	  74
  28	  77
  28	  80
  28	  81
  28	  82
  28	  83
  28	  84
  28	  91
  28	  93
  28	  95
  28	 100
  28	 108
  28	 110
  28	 111
  28	 112
  28	 117
  29	  32
  29	  34
  29	  36
  29	  37
  29	  40
  29	  41
  29	  44
  29	  46
  29	  47
  29	  49
  29	  50
  29	  54
  29	  55
  29	  56
  29	  57
  29	  61
  29	  63
  29	  65
  29	  67
  29	  76
  29	  77
  29	  79
  29	  81
  29	  82
  29	  83
  29	  84
  29	  89
  29	  96
  29	  97
  29	  98
  29	  99
  29	 100
  29	 102
  29	 106
  29	 108
  29	 114
  29	 116
  29	 118
  29	 119
  30	  34
  30	  36
  30	  39
  30	  44
  30	  48
  30	  50
  30	  51
  30	  53
  30	  54
  30	  55
  30	  61
  30	  67
  30	  68
  30	  72
  30	  74
  30	  81
  30	  84
  30	  87
  30	  89
  30	  94
  30	  95
  30	 100
  30	 101
  30	 103
  30	 104
  30	 105
  30	 108
  30	 110
  30	 111
  30	 112
  30	 114
  30	 115
  30	 119
  31	  32
  31	  34
  31	  35
  31	  37
  31	  38
  31	  39
  31	  42
  31	  44
  31	  45
  31	  50
  31	  52
  31	  54
  31	  60
  31	  61
  31	  66
  31	  70
  31	  72
  31	  75
  31	  76
  31	  77
  31	  81
  31	  84
  31	  86
  31	  87
  31	  88
  31	  90
  31	  91
  31	  93
  31	  95
  31	  98
  31	 101
  31	 103
  31	 104
  31	 105
  31	 106
  31	 108
  31	 109
  31	 114
  32	  34
  32	  35
  32	  36
  32	  40
  32	  41
  32	  42
  32	  46
  32	  51
  32	  52
  32	  58
  32	  59
  32	  60
  32	  61
  32	  63
  32	  67
  32	  69
  32	  71
  32	  74
  32	  75
  32	  77
  32	  78
  32	  79
  32	  82
  32	  84
  32	  85
  32	  86
  32	  91
  32	  92
  32	  94
  32	  95
  32	 100
  32	 102
  32	 103
  32	 104
  32	 111
  32	 117
  32	 119
  33	  36
  33	  37
  33	  38
  33	  39
  33	  41
  33	  42
  33	  45
  33	  46
  33	  48
  33	  52
  33	  53
  33	  54
  33	  58
  33	  60
  33	  61
  33	  62
  33	  63
  33	  70
  33	  73
  33	  76
  33	  85
  33	  87
  33	  92
  33	  93
  33	  95
  33	  96
  33	  97
  33	 102
  33	 105
  33	 109
  33	 114
  33	 117
  34	  35
  34	  36
  34	  37
  34	  39
  34	  40
  34	  41
  34	  48
  34	  50
  34	  52
  34	  54
  34	  60
  34	  61
  34	  64
  34	  65
  34	  66
  34	  71
  34	  73
  34	  74
  34	  75
  34	  76
  34	  79
  34	  84
  34	  86
  34	  87
  34	  88
  34	  89
  34	  93
  34	  94
  34	  97
  34	  98
  34	  99
  34	 100
  34	 101
  34	 103
  34	 104
  34	 107
  34	 110
  34	 111
  34	 115
  34	 116
  34	 118
  34	 119
  35	  37
  35	  38
  35	  41
  35	  42
  35	  44
  35	  57
  35	  58
  35	  63
  35	  68
  35	  73
  35	  74
  35	  76
  35	  77
  35	  80
  35	  81
  35	  83
  35	  96
  35	  97
  35	  98
  35	 100
  35	 101
  35	 107
  35	 109
  35	 110
  35	 111
  35	 117
  35	 118
  36	  40
  36	  41
  36	  47
  36	  50
  36	  58
  36	  62
  36	  63
  36	  67
  36	  68
  36	  74
  36	  75
  36	  76
  36	  81
  36	  83
  36	  84
  36	  85
  36	  91
  36	  92
  36	  93
  36	  94
  36	  99
  36	 101
  36	 103
  36	 107
  36	 108
  36	 110
  36	 112
  36	 113
  36	 116
  36	 118
  37	  39
  37	  40
  37	  43
  37	  44
  37	  45
  37	  47
  37	  49
  37	  50
  37	  52
  37	  60
  37	  64
  37	  65
  37	  71
  37	  73
  37	  74
  37	  75
  37	  80
  37	  81
  37	  83
  37	  84
  37	  85
  37	  88
  37	  92
  37	 100
  37	 102
  37	 106
  37	 107
  37	 108
  37	 110
  37	 111
  37	 113
  37	 114
  37	 116
  38	  41
  38	  43
  38	  44
  38	  45
  38	  47
  38	  48
  38	  52
  38	  57
  38	  59
  38	  62
  38	  69
  38	  70
  38	  72
  38	  74
  38	  75
  38	  85
  38	  87
  38	  90
  38	  95
  38	  98
  38	 101
  38	 106
  38	 107
  38	 108
  38	 110
  38	 112
  38	 115
  38	 116
  39	  41
  39	  44
  39	  45
  39	  46
  39	  47
  39	  48
  39	  51
  39	  54
  39	  56
  39	  57
  39	  61
  39	  63
  39	  64
  39	  66
  39	  69
  39	  73
  39	  76
  39	  77
  39	  78
  39	  79
  39	  80
  39	  82
  39	  83
  39	  84
  39	  86
  39	  88
  39	  90
  39	  91
  39	  95
  39	  97
  39	  99
  39	 100
  39	 102
  39	 105
  39	 107
  39	 108
  39	 110
  39	 112
  39	 113
  39	 114
  39	 119
  40	  41
  40	  43
  40	  44
  40	  46
  40	  49
  40	  54
  40	  56
  40	  57
  40	  59
  40	  60
  40	  68
  40	  75
  40	  76
  40	  78
  40	  79
  40	  80
  40	  81
  40	  82
  40	  83
  40	  86
  40	  89
  40	  92
  40	  94
  40	  95
  40	  98
  40	 100
  40	 101
  40	 102
  40	 103
  40	 105
  40	 111
  40	 113
  40	 114
  40	 115
  40	 116
  40	 117
  41	  43
  41	  47
  41	  51
  41	  57
  41	  60
  41	  61
  41	  63
  41	  72
  41	  74
  41	  80
  41	  81
  41	  83
  41	  84
  41	  85
  41	  86
  41	  88
  41	  89
  41	  90
  41	  92
  41	 102
  41	 103
  41	 105
  41	 107
  41	 111
  41	 113
  41	 115
  41	 119
  42	  43
  42	  46
  42	  48
  42	  50
  42	  51
  42	  52
  42	  53
  42	  55
  42	  57
  42	  58
  42	  59
  42	  60
  42	  61
  42	  68
  42	  72
  42	  74
  42	  75
  42	  78
  42	  79
  42	  80
  42	  81
  42	  86
  42	  87
  42	  89
  42	  90
  42	  95
  42	  96
  42	  98
  42	  99
  42	 100
  42	 102
  42	 103
  42	 110
  42	 111
  42	 115
  42	 116
  42	 118
  42	 119
  43	  47
  43	  49
  43	  51
  43	  55
  43	  56
  43	  59
  43	  62
  43	  63
  43	  64
  43	  66
  43	  68
  43	  70
  43	  71
  43	  72
  43	  76
  43	  78
  43	  80
  43	  82
  43	  85
  43	  86
  43	  87
  43	  88
  43	  91
  43	  93
  43	  95
  43	  96
  43	  97
  43	  99
  43	 103
  43	 105
  43	 106
  43	 108
  43	 112
  43	 115
  44	  47
  44	  48
  44	  49
  44	  50
  44	  53
  44	  58
  44	  59
  44	  60
  44	  63
  44	  67
  44	  71
  44	  73
  44	  74
  44	  75
  44	  79
  44	  84
  44	  87
  44	  88
  44	  89
  44	  90
  44	  97
  44	 103
  44	 106
  44	 107
  44	 110
  44	 114
  44	 115
  44	 116
  44	 117
  44	 119
  45	  49
  45	  50
  45	  51
  45	  53
  45	  54
  45	  62
  45	  63
  45	  64
  45	  68
  45	  80
  45	  82
  45	  84
  45	  86
  45	  89
  45	  95
  45	  97
  45	 100
  45	 101
  45	 105
  45	 115
  45	 116
  45	 118
  45	 119
  46	  47
  46	  48
  46	  50
  46	  51
  46	  54
  46	  55
  46	  57
  46	  59
  46	  62
  46	  67
  46	  70
  46	  72
  46	  76
  46	  77
  46	  80
  46	  83
  46	  87
  46	  89
  46	  91
  46	  93
  46	  94
  46	  95
  46	  99
  46	 102
  46	 105
  46	 108
  46	 112
  46	 116
  46	 118
  46	 119
  47	  48
  47	  49
  47	  51
  47	  52
  47	  54
  47	  55
  47	  56
  47	  62
  47	  64
  47	  65
  47	  69
  47	  71
  47	  72
  47	  73
  47	  74
  47	  75
  47	  79
  47	  81
  47	  82
  47	  84
  47	  86
  47	  87
  47	  90
  47	  94
  47	  96
  47	 100
  47	 101
  47	 102
  47	 104
  47	 105
  47	 106
  47	 108
  47	 110
  47	 115
  47	 116
  47	 117
  47	 118
  47	 119
  48	  50
  48	  54
  48	  56
  48	  57
  48	  64
  48	  65
  48	  66
  48	  70
  48	  71
  48	  79
  48	  82
  48	  83
  48	  86
  48	  92
  48	  99
  48	 101
  48	 106
  48	 108
  48	 109
  48	 112
  48	 116
  48	 117
  48	 118
  48	 119
  49	  53
  49	  56
  49	  57
  49	  58
  49	  64
  49	  65
  49	  66
  49	  70
  49	  75
  49	  78
  49	  80
  49	  82
  49	  84
  49	  85
  49	  88
  49	  90
  49	  92
  49	  93
  49	  94
  49	  95
  49	  96
  49	  98
  49	  99
  49	 105
  49	 108
  49	 110
  49	 112
  49	 114
  49	 116
  49	 117
  50	  55
  50	  57
  50	  60
  50	  64
  50	  65
  50	  66
  50	  67
  50	  69
  50	  70
  50	  75
  50	  76
  50	  79
  50	  81
  50	  82
  50	  84
  50	  85
  50	  88
  50	  93
  50	  95
  50	  96
  50	  99
  50	 101
  50	 102
  50	 105
  50	 107
  50	 109
  50	 110
  50	 112
  50	 113
  50	 115
  50	 116
  51	  52
  51	  53
  51	  55
  51	  56
  51	  58
  51	  59
  51	  63
  51	  64
  51	  65
  51	  66
  51	  67
  51	  69
  51	  70
  51	  71
  51	  73
  51	  74
  51	  76
  51	  81
  51	  82
  51	  83
  51	  86
  51	  88
  51	  90
  51	  93
  51	  94
  51	  95
  51	  96
  51	 100
  51	 101
  51	 103
  51	 105
  51	 106
  51	 111
  51	 112
  51	 114
  51	 115
  51	 116
  51	 117
  51	 118
  51	 119
  52	  53
  52	  59
  52	  64
  52	  65
  52	  69
  52	  70
  52	  72
  52	  74
  52	  75
  52	  77
  52	  81
  52	  82
  52	  83
  52	  86
  52	  87
  52	  89
  52	  90
  52	  91
  52	  92
  52	  95
  52	  97
  52	  98
  52	 101
  52	 103
  52	 105
  52	 108
  52	 112
  52	 115
  52	 118
  52	 119
  53	  57
  53	  59
  53	  62
  53	  65
  53	  66
  53	  68
  53	  69
  53	  70
  53	  71
  53	  72
  53	  73
  53	  79
  53	  80
  53	  88
  53	  90
  53	  91
  53	  95
  53	  97
  53	  99
  53	 101
  53	 102
  53	 103
  53	 105
  53	 107
  53	 109
  53	 114
  53	 115
  53	 117
  53	 118
  53	 119
  54	  57
  54	  58
  54	  59
  54	  62
  54	  63
  54	  66
  54	  67
  54	  69
  54	  70
  54	  71
  54	  77
  54	  78
  54	  79
  54	  82
  54	  84
  54	  85
  54	  86
  54	  88
  54	  91
  54	  93
  54	  98
  54	  99
  54	 101
  54	 106
  54	 107
  54	 108
  54	 109
  54	 112
  54	 113
  54	 114
  54	 115
  54	 116
  54	 118
  55	  59
  55	  65
  55	  66
  55	  67
  55	  68
  55	  71
  55	  72
  55	  73
  55	  74
  55	  77
  55	  81
  55	  83
  55	  84
  55	  88
  55	  94
  55	  96
  55	 100
  55	 101
  55	 109
  55	 110
  55	 112
  55	 117
  55	 118
  55	 119
  56	  57
  56	  59
  56	  60
  56	  61
  56	  62
  56	  63
  56	  64
  56	  67
  56	  69
  56	  70
  56	  71
  56	  73
  56	  74
  56	  75
  56	  77
  56	  82
  56	  83
  56	  88
  56	  91
  56	  92
  56	  93
  56	  94
  56	  96
  56	  98
  56	  99
  56	 101
  56	 103
  56	 105
  56	 108
  56	 109
  56	 111
  56	 113
  56	 114
  56	 115
  56	 117
  56	 118
  57	  58
  57	  63
  57	  64
  57	  65
  57	  68
  57	  72
  57	  73
  57	  74
  57	  80
  57	  81
  57	  82
  57	  86
  57	  87
  57	  94
  57	  95
  57	  96
  57	  97
  57	 103
  57	 106
  57	 109
  57	 110
  57	 114
  58	  59
  58	  61
  58	  68
  58	  70
  58	  78
  58	  81
  58	  82
  58	  83
  58	  85
  58	  89
  58	  91
  58	  92
  58	  93
  58	  94
  58	  98
  58	  99
  58	 100
  58	 101
  58	 103
  58	 109
  58	 114
  58	 115
  58	 116
  58	 119
  59	  62
  59	  64
  59	  65
  59	  66
  59	  75
  59	  80
  59	  81
  59	  86
  59	  88
  59	  91
  59	  94
  59	  99
  59	 103
  59	 108
  59	 113
  59	 114
  60	  61
  60	  62
  60	  63
  60	  65
  60	  67
  60	  71
  60	  74
  60	  76
  60	  78
  60	  80
  60	  81
  60	  82
  60	  83
  60	  84
  60	  85
  60	  88
  60	  89
  60	  90
  60	  95
  60	  98
  60	  99
  60	 100
  60	 101
  60	 103
  60	 107
  60	 108
  60	 109
  60	 110
  60	 112
  60	 117
  60	 118
  61	  63
  61	  64
  61	  68
  61	  70
  61	  71
  61	  73
  61	  79
  61	  80
  61	  81
  61	  82
  61	  83
  61	  87
  61	  88
  61	  91
  61	  97
  61	  98
  61	  99
  61	 101
  61	 103
  61	 108
  61	 109
  61	 113
  61	 117
  61	 119
  62	  65
  62	  68
  62	  69
  62	  70
  62	  72
  62	  78
  62	  80
  62	  83
  62	  86
  62	  87
  62	  89
  62	  95
  62	  97
  62	 103
  62	 110
  62	 114
  62	 115
  62	 118
  63	  64
  63	  67
  63	  68
  63	  71
  63	  74
  63	  75
  63	  76
  63	  79
  63	  80
  63	  81
  63	  83
  63	  84
  63	  85
  63	  87
  63	  91
  63	  95
  63	  98
  63	 102
  63	 103
  63	 104
  63	 105
  63	 106
  63	 107
  63	 108
  63	 113
  63	 115
  63	 116
  63	 117
  63	 119
  64	  66
  64	  67
  64	  71
  64	  73
  64	  78
  64	  83
  64	  86
  64	  90
  64	  91
  64	  92
  64	  96
  64	  97
  64	  99
  64	 100
  64	 101
  64	 102
  64	 106
  64	 109
  64	 110
  64	 114
  64	 115
  64	 119
  65	  66
  65	  72
  65	  75
  65	  76
  65	  79
  65	  80
  65	  81
  65	  82
  65	  83
  65	  85
  65	  86
  65	  91
  65	  92
  65	  97
  65	  98
  65	 100
  65	 101
  65	 110
  65	 112
  65	 115
  65	 119
  66	  67
  66	  69
  66	  70
  66	  71
  66	  73
  66	  76
  66	  80
  66	  81
  66	  83
  66	  86
  66	  87
  66	  92
  66	  95
  66	  97
  66	  99
  66	 100
  66	 101
  66	 102
  66	 104
  66	 107
  66	 112
  66	 114
  66	 118
  66	 119
  67	  70
  67	  71
  67	  72
  67	  73
  67	  79
  67	  82
  67	  88
  67	  90
  67	  92
  67	  94
  67	  96
  67	  97
  67	  98
  67	 100
  67	 109
  67	 110
  67	 111
  67	 117
  68	  70
  68	  72
  68	  74
  68	  76
  68	  77
  68	  78
  68	  79
  68	  83
  68	  84
  68	  85
  68	  88
  68	  92
  68	  93
  68	  97
  68	  99
  68	 102
  68	 112
  68	 115
  68	 116
  69	  70
  69	  71
  69	  78
  69	  81
  69	  89
  69	  90
  69	  91
  69	  94
  69	  95
  69	  96
  69	 101
  69	 106
  69	 108
  69	 111
  69	 112
  69	 113
  69	 114
  69	 116
  69	 117
  69	 118
  69	 119
  70	  73
  70	  74
  70	  77
  70	  78
  70	  79
  70	  81
  70	  86
  70	  90
  70	  91
  70	  93
  70	 100
  70	 104
  70	 107
  70	 111
  70	 112
  70	 113
  70	 118
  71	  72
  71	  74
  71	  79
  71	  82
  71	  84
  71	  86
  71	  90
  71	  92
  71	  93
  71	  94
  71	  99
  71	 101
  71	 103
  71	 104
  71	 108
  71	 112
  71	 119
  72	  74
  72	  81
  72	  84
  72	  86
  72	  87
  72	  90
  72	  94
  72	  98
  72	 101
  72	 109
  72	 110
  72	 112
  72	 116
  72	 117
  73	  77
  73	  78
  73	  85
  73	  88
  73	  89
  73	  90
  73	  95
  73	 100
  73	 101
  73	 105
  73	 107
  73	 108
  73	 109
  73	 110
  73	 111
  73	 116
  73	 119
  74	  80
  74	  81
  74	  83
  74	  84
  74	  87
  74	  90
  74	  96
  74	 100
  74	 107
  74	 112
  74	 114
  74	 116
  74	 118
  75	  76
  75	  77
  75	  80
  75	  81
  75	  82
  75	  86
  75	  87
  75	  89
  75	  90
  75	  92
  75	  93
  75	  96
  75	  97
  75	 101
  75	 102
  75	 105
  75	 107
  75	 110
  75	 111
  75	 112
  75	 114
  75	 116
  75	 117
  75	 118
  75	 119
  76	  84
  76	  90
  76	  92
  76	  93
  76	  98
  76	 100
  76	 104
  76	 105
  76	 107
  76	 110
  76	 114
  76	 115
  77	  79
  77	  80
  77	  81
  77	  82
  77	  84
  77	  85
  77	  87
  77	  88
  77	  99
  77	 102
  77	 104
  77	 107
  77	 111
  77	 113
  77	 114
  77	 115
  77	 117
  78	  83
  78	  87
  78	  89
  78	  91
  78	  92
  78	  95
  78	  97
  78	 108
  78	 111
  78	 116
  78	 119
  79	  81
  79	  82
  79	  83
  79	  86
  79	  88
  79	  91
  79	  92
  79	  98
  79	 103
  79	 105
  79	 109
  79	 110
  79	 111
  79	 112
  79	 113
  79	 115
  79	 116
  79	 117
  79	 119
  80	  81
  80	  82
  80	  83
  80	  84
  80	  85
  80	  87
  80	  89
  80	  91
  80	  94
  80	  95
  80	  96
  80	  98
  80	 108
  80	 111
  80	 112
  80	 116
  80	 117
  81	  84
  81	  86
  81	  88
  81	  90
  81	  96
  81	  97
  81	  99
  81	 102
  81	 103
  81	 105
  81	 107
  81	 108
  81	 113
  81	 114
  81	 116
  81	 118
  81	 119
  82	  83
  82	  84
  82	  92
  82	  94
  82	  95
  82	  96
  82	  98
  82	  99
  82	 100
  82	 104
  82	 105
  82	 113
  82	 119
  83	  86
  83	  88
  83	  89
  83	  90
  83	  98
  83	  99
  83	 101
  83	 107
  83	 111
  83	 117
  84	  86
  84	  88
  84	  90
  84	  92
  84	  93
  84	  95
  84	  98
  84	  99
  84	 100
  84	 103
  84	 106
  84	 113
  84	 114
  84	 117
  84	 119
  85	  91
  85	  92
  85	  97
  85	 100
  85	 104
  85	 106
  85	 107
  85	 109
  85	 110
  85	 113
  85	 114
  85	 115
  85	 116
  85	 118
  86	  87
  86	  89
  86	  91
  86	  93
  86	  94
  86	  96
  86	  97
  86	 100
  86	 107
  86	 110
  86	 115
  86	 116
  86	 118
  87	  88
  87	  91
  87	  96
  87	  99
  87	 101
  87	 106
  87	 108
  87	 110
  87	 112
  87	 115
  87	 118
  88	  89
  88	  90
  88	  91
  88	  92
  88	  97
  88	 101
  88	 102
  88	 103
  88	 104
  88	 107
  88	 108
  88	 109
  88	 111
  88	 112
  88	 113
  88	 116
  88	 117
  89	  91
  89	 100
  89	 101
  89	 106
  89	 110
  89	 113
  89	 115
  90	  94
  90	 102
  90	 104
  90	 113
  90	 116
  90	 117
  90	 118
  90	 119
  91	  93
  91	  95
  91	  98
  91	 100
  91	 103
  91	 104
  91	 105
  91	 109
  91	 112
  91	 113
  91	 115
  91	 119
  92	  94
  92	  95
  92	  96
  92	  98
  92	 102
  92	 105
  92	 107
  92	 109
  92	 112
  92	 114
  92	 116
  92	 119
  93	  94
  93	  95
  93	 103
  93	 106
  93	 109
  93	 110
  93	 112
  93	 114
  93	 115
  93	 116
  93	 118
  93	 119
  94	  95
  94	  98
  94	  99
  94	 101
  94	 104
  94	 108
  94	 110
  94	 111
  94	 112
  94	 113
  94	 114
  95	  99
  95	 101
  95	 102
  95	 103
  95	 109
  95	 114
  95	 115
  95	 116
  95	 118
  95	 119
  96	  99
  96	 100
  96	 101
  96	 103
  96	 105
  96	 108
  96	 113
  96	 114
  96	 118
  97	  98
  97	  99
  97	 103
  97	 105
  97	 108
  97	 109
  97	 111
  97	 112
  97	 116
  97	 118
  98	 100
  98	 104
  98	 106
  98	 108
  98	 110
  98	 111
  98	 114
  98	 115
  98	 119
  99	 101
  99	 103
  99	 104
  99	 107
  99	 108
  99	 111
  99	 115
  99	 116
  99	 118
  99	 119
 100	 101
 100	 102
 100	 113
 100	 114
 100	 116
 100	 118
 100	 119
 101	 102
 101	 104
 101	 108
 101	 110
 101	 111
 101	 112
 101	 113
 101	 119
 102	 105
 102	 108
 102	 110
 102	 112
 102	 113
 102	 116
 102	 119
 103	 105
 103	 110
 103	 112
 103	 116
 103	 119
 104	 106
 104	 108
 105	 109
 105	 116
 105	 119
 106	 109
 106	 110
 106	 114
 106	 116
 107	 108
 107	 109
 107	 115
 107	 116
 107	 118
 108	 109
 108	 116
 108	 117
 108	 119
 109	 111
 109	 118
 109	 119
 110	 113
 110	 114
 110	 118
 110	 119
 111	 113
 111	 115
 112	 113
 112	 114
 112	 116
 112	 118
 112	 119
 113	 116
 113	 117
 113	 118
 114	 115
 114	 116
 114	 117
 114	 118
 114	 119
 115	 116
 115	 118
 115	 119
 117	 118
 117	 119
;
